\* MinimizeRectangleArea *\
Minimize
Area: - 0.66994125135 u_2 - 0.383712143369 u_3 - 0.273527310176 u_4
 - 0.213478950973 u_5 - 0.175356330405 u_6 - 0.148907885396 u_7
 - 0.129448050051 u_8 - 0.114515216762 u_9 + 0.0295562316772 w_2
 + 0.0108597776425 w_3 + 0.00569848562867 w_4 + 0.00351888380725 w_5
 + 0.00239122268734 w_6 + 0.00173148703949 w_7 + 0.00131197348025 w_8
 + 0.00102857979128 w_9 + 0.00850680483919 x + 0.00850680483919 y
 - 0.66994125135 yu_2 - 0.383712143369 yu_3 - 0.273527310176 yu_4
 - 0.213478950973 yu_5 - 0.175356330405 yu_6 - 0.148907885396 yu_7
 - 0.129448050051 yu_8 - 0.114515216762 yu_9 + 0.0295562316772 yw_2
 + 0.0108597776425 yw_3 + 0.00569848562867 yw_4 + 0.00351888380725 yw_5
 + 0.00239122268734 yw_6 + 0.00173148703949 yw_7 + 0.00131197348025 yw_8
 + 0.00102857979128 yw_9
Subject To
_C1: - 11.5 s_1 - 9.5 s_2 + 124 u_1_2 + 124 v_1_2 + x_1 - x_2 >= 10.5
_C10: - 9.5 s_2 - 5 s_3 - 124 u_2_3 + 124 v_2_3 - x_2 + x_3 >= -111
_C100: 124 u_2 + w_2 - x <= 124
_C101: 124 u_3 - w_3 + x <= 124
_C102: 124 u_3 + w_3 - x <= 124
_C103: 124 u_4 - w_4 + x <= 124
_C104: 124 u_4 + w_4 - x <= 124
_C105: 124 u_5 - w_5 + x <= 124
_C106: 124 u_5 + w_5 - x <= 124
_C107: 124 u_6 - w_6 + x <= 124
_C108: 124 u_6 + w_6 - x <= 124
_C109: 124 u_7 - w_7 + x <= 124
_C11: - 9.5 s_2 - 2 s_4 + 124 u_2_4 + 124 v_2_4 + x_2 - x_4 >= 12.5
_C110: 124 u_7 + w_7 - x <= 124
_C111: 124 u_8 - w_8 + x <= 124
_C112: 124 u_8 + w_8 - x <= 124
_C113: 124 u_9 - w_9 + x <= 124
_C114: 124 u_9 + w_9 - x <= 124
_C115: 124 u_10 - w_10 + x <= 124
_C116: 124 u_10 + w_10 - x <= 124
_C117: - y - 124 yu_2 <= -22.6666666667
_C118: y + 124 yu_2 <= 146.666666667
_C119: - y - 124 yu_3 <= -35.3333333333
_C12: - 9.5 s_2 - 2 s_4 - 124 u_2_4 + 124 v_2_4 - x_2 + x_4 >= -111.5
_C120: y + 124 yu_3 <= 159.333333333
_C121: - y - 124 yu_4 <= -48
_C122: y + 124 yu_4 <= 172
_C123: - y - 124 yu_5 <= -60.6666666667
_C124: y + 124 yu_5 <= 184.666666667
_C125: - y - 124 yu_6 <= -73.3333333333
_C126: y + 124 yu_6 <= 197.333333333
_C127: - y - 124 yu_7 <= -86
_C128: y + 124 yu_7 <= 210
_C129: - y - 124 yu_8 <= -98.6666666667
_C13: - 9.5 s_2 - 4 s_5 + 124 u_2_5 + 124 v_2_5 + x_2 - x_5 >= 10.5
_C130: y + 124 yu_8 <= 222.666666667
_C131: - y - 124 yu_9 <= -111.333333333
_C132: y + 124 yu_9 <= 235.333333333
_C133: - y - 124 yu_10 <= -124
_C134: y + 124 yu_10 <= 248
_C135: - 124 yu_2 - yw_2 <= 0
_C136: - 124 yu_2 + yw_2 <= 0
_C137: - 124 yu_3 - yw_3 <= 0
_C138: - 124 yu_3 + yw_3 <= 0
_C139: - 124 yu_4 - yw_4 <= 0
_C14: - 9.5 s_2 - 4 s_5 - 124 u_2_5 + 124 v_2_5 - x_2 + x_5 >= -113.5
_C140: - 124 yu_4 + yw_4 <= 0
_C141: - 124 yu_5 - yw_5 <= 0
_C142: - 124 yu_5 + yw_5 <= 0
_C143: - 124 yu_6 - yw_6 <= 0
_C144: - 124 yu_6 + yw_6 <= 0
_C145: - 124 yu_7 - yw_7 <= 0
_C146: - 124 yu_7 + yw_7 <= 0
_C147: - 124 yu_8 - yw_8 <= 0
_C148: - 124 yu_8 + yw_8 <= 0
_C149: - 124 yu_9 - yw_9 <= 0
_C15: - 5 s_3 - 2 s_4 + 124 u_3_4 + 124 v_3_4 + x_3 - x_4 >= 14.5
_C150: - 124 yu_9 + yw_9 <= 0
_C151: - 124 yu_10 - yw_10 <= 0
_C152: - 124 yu_10 + yw_10 <= 0
_C153: y + 124 yu_2 - yw_2 <= 124
_C154: - x + 124 yu_2 + yw_2 <= 124
_C155: y + 124 yu_3 - yw_3 <= 124
_C156: - x + 124 yu_3 + yw_3 <= 124
_C157: y + 124 yu_4 - yw_4 <= 124
_C158: - x + 124 yu_4 + yw_4 <= 124
_C159: y + 124 yu_5 - yw_5 <= 124
_C16: - 5 s_3 - 2 s_4 - 124 u_3_4 + 124 v_3_4 - x_3 + x_4 >= -109.5
_C160: - x + 124 yu_5 + yw_5 <= 124
_C161: y + 124 yu_6 - yw_6 <= 124
_C162: - x + 124 yu_6 + yw_6 <= 124
_C163: y + 124 yu_7 - yw_7 <= 124
_C164: - x + 124 yu_7 + yw_7 <= 124
_C165: y + 124 yu_8 - yw_8 <= 124
_C166: - x + 124 yu_8 + yw_8 <= 124
_C167: y + 124 yu_9 - yw_9 <= 124
_C168: - x + 124 yu_9 + yw_9 <= 124
_C169: y + 124 yu_10 - yw_10 <= 124
_C17: - 5 s_3 - 4 s_5 + 124 u_3_5 + 124 v_3_5 + x_3 - x_5 >= 12.5
_C170: - x + 124 yu_10 + yw_10 <= 124
_C18: - 5 s_3 - 4 s_5 - 124 u_3_5 + 124 v_3_5 - x_3 + x_5 >= -111.5
_C19: - 2 s_4 - 4 s_5 + 124 u_4_5 + 124 v_4_5 + x_4 - x_5 >= 12
_C2: - 11.5 s_1 - 9.5 s_2 - 124 u_1_2 + 124 v_1_2 - x_1 + x_2 >= -113.5
_C20: - 2 s_4 - 4 s_5 - 124 u_4_5 + 124 v_4_5 - x_4 + x_5 >= -112
_C21: 11.5 s_1 + 9.5 s_2 + 124 u_1_2 - 124 v_1_2 + y_1 - y_2 >= -92.5
_C22: 11.5 s_1 + 9.5 s_2 - 124 u_1_2 - 124 v_1_2 - y_1 + y_2 >= -216.5
_C23: 11.5 s_1 + 5 s_3 + 124 u_1_3 - 124 v_1_3 + y_1 - y_3 >= -95
_C24: 11.5 s_1 + 5 s_3 - 124 u_1_3 - 124 v_1_3 - y_1 + y_3 >= -219
_C25: 11.5 s_1 + 2 s_4 + 124 u_1_4 - 124 v_1_4 + y_1 - y_4 >= -98.5
_C26: 11.5 s_1 + 2 s_4 - 124 u_1_4 - 124 v_1_4 - y_1 + y_4 >= -222.5
_C27: 11.5 s_1 + 4 s_5 + 124 u_1_5 - 124 v_1_5 + y_1 - y_5 >= -98.5
_C28: 11.5 s_1 + 4 s_5 - 124 u_1_5 - 124 v_1_5 - y_1 + y_5 >= -222.5
_C29: 9.5 s_2 + 5 s_3 + 124 u_2_3 - 124 v_2_3 + y_2 - y_3 >= -96.5
_C3: - 11.5 s_1 - 5 s_3 + 124 u_1_3 + 124 v_1_3 + x_1 - x_3 >= 12.5
_C30: 9.5 s_2 + 5 s_3 - 124 u_2_3 - 124 v_2_3 - y_2 + y_3 >= -220.5
_C31: 9.5 s_2 + 2 s_4 + 124 u_2_4 - 124 v_2_4 + y_2 - y_4 >= -100
_C32: 9.5 s_2 + 2 s_4 - 124 u_2_4 - 124 v_2_4 - y_2 + y_4 >= -224
_C33: 9.5 s_2 + 4 s_5 + 124 u_2_5 - 124 v_2_5 + y_2 - y_5 >= -100
_C34: 9.5 s_2 + 4 s_5 - 124 u_2_5 - 124 v_2_5 - y_2 + y_5 >= -224
_C35: 5 s_3 + 2 s_4 + 124 u_3_4 - 124 v_3_4 + y_3 - y_4 >= -102.5
_C36: 5 s_3 + 2 s_4 - 124 u_3_4 - 124 v_3_4 - y_3 + y_4 >= -226.5
_C37: 5 s_3 + 4 s_5 + 124 u_3_5 - 124 v_3_5 + y_3 - y_5 >= -102.5
_C38: 5 s_3 + 4 s_5 - 124 u_3_5 - 124 v_3_5 - y_3 + y_5 >= -226.5
_C39: 2 s_4 + 4 s_5 + 124 u_4_5 - 124 v_4_5 + y_4 - y_5 >= -106
_C4: - 11.5 s_1 - 5 s_3 - 124 u_1_3 + 124 v_1_3 - x_1 + x_3 >= -111.5
_C40: 2 s_4 + 4 s_5 - 124 u_4_5 - 124 v_4_5 - y_4 + y_5 >= -230
_C41: x <= 124
_C42: - 11.5 s_1 + x - x_1 >= 5
_C43: - 9.5 s_2 + x - x_2 >= 5.5
_C44: - 5 s_3 + x - x_3 >= 7.5
_C45: - 2 s_4 + x - x_4 >= 7
_C46: - 4 s_5 + x - x_5 >= 5
_C47: y <= 124
_C48: 11.5 s_1 + y - y_1 >= 16.5
_C49: 9.5 s_2 + y - y_2 >= 15
_C5: - 11.5 s_1 - 2 s_4 + 124 u_1_4 + 124 v_1_4 + x_1 - x_4 >= 12
_C50: 5 s_3 + y - y_3 >= 12.5
_C51: 2 s_4 + y - y_4 >= 9
_C52: 4 s_5 + y - y_5 >= 9
_C53: - 11.5 s_1 + x_1 >= 5
_C54: 11.5 s_1 + y_1 >= 16.5
_C55: - 9.5 s_2 + x_2 >= 5.5
_C56: 9.5 s_2 + y_2 >= 15
_C57: - 5 s_3 + x_3 >= 7.5
_C58: 5 s_3 + y_3 >= 12.5
_C59: - 2 s_4 + x_4 >= 7
_C6: - 11.5 s_1 - 2 s_4 - 124 u_1_4 + 124 v_1_4 - x_1 + x_4 >= -112
_C60: 2 s_4 + y_4 >= 9
_C61: - 4 s_5 + x_5 >= 5
_C62: 4 s_5 + y_5 >= 9
_C63: - 124 u_2 - x <= -22.6666666667
_C64: 124 u_2 + x <= 146.666666667
_C65: - 124 u_3 - x <= -35.3333333333
_C66: 124 u_3 + x <= 159.333333333
_C67: - 124 u_4 - x <= -48
_C68: 124 u_4 + x <= 172
_C69: - 124 u_5 - x <= -60.6666666667
_C7: - 11.5 s_1 - 4 s_5 + 124 u_1_5 + 124 v_1_5 + x_1 - x_5 >= 10
_C70: 124 u_5 + x <= 184.666666667
_C71: - 124 u_6 - x <= -73.3333333333
_C72: 124 u_6 + x <= 197.333333333
_C73: - 124 u_7 - x <= -86
_C74: 124 u_7 + x <= 210
_C75: - 124 u_8 - x <= -98.6666666667
_C76: 124 u_8 + x <= 222.666666667
_C77: - 124 u_9 - x <= -111.333333333
_C78: 124 u_9 + x <= 235.333333333
_C79: - 124 u_10 - x <= -124
_C8: - 11.5 s_1 - 4 s_5 - 124 u_1_5 + 124 v_1_5 - x_1 + x_5 >= -114
_C80: 124 u_10 + x <= 248
_C81: - 124 u_2 - w_2 <= 0
_C82: - 124 u_2 + w_2 <= 0
_C83: - 124 u_3 - w_3 <= 0
_C84: - 124 u_3 + w_3 <= 0
_C85: - 124 u_4 - w_4 <= 0
_C86: - 124 u_4 + w_4 <= 0
_C87: - 124 u_5 - w_5 <= 0
_C88: - 124 u_5 + w_5 <= 0
_C89: - 124 u_6 - w_6 <= 0
_C9: - 9.5 s_2 - 5 s_3 + 124 u_2_3 + 124 v_2_3 + x_2 - x_3 >= 13
_C90: - 124 u_6 + w_6 <= 0
_C91: - 124 u_7 - w_7 <= 0
_C92: - 124 u_7 + w_7 <= 0
_C93: - 124 u_8 - w_8 <= 0
_C94: - 124 u_8 + w_8 <= 0
_C95: - 124 u_9 - w_9 <= 0
_C96: - 124 u_9 + w_9 <= 0
_C97: - 124 u_10 - w_10 <= 0
_C98: - 124 u_10 + w_10 <= 0
_C99: 124 u_2 - w_2 + x <= 124
Bounds
10 <= x <= 124
10 <= y <= 124
Binaries
s_1
s_2
s_3
s_4
s_5
u_10
u_1_2
u_1_3
u_1_4
u_1_5
u_2
u_2_3
u_2_4
u_2_5
u_3
u_3_4
u_3_5
u_4
u_4_5
u_5
u_6
u_7
u_8
u_9
v_1_2
v_1_3
v_1_4
v_1_5
v_2_3
v_2_4
v_2_5
v_3_4
v_3_5
v_4_5
yu_10
yu_2
yu_3
yu_4
yu_5
yu_6
yu_7
yu_8
yu_9
End
